(declare-fun c () String)
(declare-fun g () String)
(declare-fun b () String)
(declare-fun d () String)
(declare-fun f () String)
(declare-fun a () String)
(declare-fun h () String)
(assert (= (str.++ "g" f g g) (str.++ "h" d f c b)))
(assert (= (str.++ "g" a c "h" d "a") (str.++ "b" h)))
(assert (= (str.++ "b" b "behh") (str.++ a "cfdef")))

(check-sat)
